Traveling Salesman Problem/TSP_generados/Aleatorio1621103274_7.tsp
NAME: Aleatorio1621103274_7.tsp
COMMENT: Randomly generated scenario
TYPE: TSP
DIMENSION: 7
EDGE_WEIGHT_TYPE: ATT
NODE_COORD_SECTION
1 39.23 35.98
2 9.39 41.58
3 4.65 22.07
4 30.56 0.81
5 1.7 2.79
6 6.35 40.12
7 38.91 25.25
