Traveling Salesman Problem/TSP_generados/Aleatorio1621103274_7.opt.tour
NAME: Aleatorio1621103274_7.opt.tour
COMMENT: Optimal solution for Aleatorio1621103274_7 (136.8572538933647)
TYPE: TOUR
DIMENSION: 7
TOUR_SECTION
1 2 6 3 5 4 7
-1
EOF
